c Random generated cnf formula, satisfiable: true
p cnf 10 50
-5 -8 1 0
4 -3 -1 0
-5 -1 -4 0
9 6 7 0
9 -1 -3 0
5 -8 10 0
-7 1 2 0
-8 -5 10 0
-10 1 -4 0
-8 1 -9 0
-5 -10 1 0
10 9 3 0
3 -4 -7 0
8 2 7 0
-1 -9 -10 0
-1 3 8 0
-6 -1 -3 0
1 5 10 0
-4 9 -8 0
6 9 8 0
-2 1 -4 0
4 -10 -3 0
2 10 -4 0
3 6 2 0
-7 -1 5 0
-3 5 6 0
10 -7 -6 0
5 -6 -10 0
9 -10 5 0
7 -10 -4 0
-10 1 3 0
3 -2 1 0
-7 3 -4 0
-7 -10 -1 0
6 7 8 0
2 3 7 0
-6 10 9 0
-5 10 6 0
3 1 -2 0
-3 7 2 0
10 6 8 0
7 -2 8 0
-3 -10 -5 0
3 -2 1 0
7 9 1 0
8 -5 10 0
1 -3 -8 0
9 2 -7 0
8 10 -9 0
-4 2 1 0
